69 95 18 182 139 9 111 153 25 137 189 143 58 85 13 44 124 187 51 199 100 56 126 115 123 4 87 106 102 160 36 65 168 33 29 12 169 142 147 127 86 148 164 47 159 39 75 67 116 68 7 46 54 35 37 188 11 64 74 77 73 60 138 103 150 121 135 172 43 42 53 19 16 104 149 181 177 92 8 10 110 114 144 183 66 48 98 197 109 24 45 41 179 40 128 133 129 193 34 190 5 76 107 145 152 71 170 194 91 15 174 165 108 72 186 171 167 195 97 118 120 178 134 125 57 89 154 6 191 180 112 82 1 155 80 2 94 101 55 50 52 20 63 22 157 61 173 83 158 151 78 185 175 88 99 141 117 90 79 21 59 113 163 105 23 140 49 0 26 184 28 192 166 30 156 131 70 146 3 196 162 17 32 27 31 198 119 62 84 122 130 176 132 81 136 93 38 96 161 14 

